
  20    0


   0  11 2 3 4 5 7 8 15 16 17 18 19 
   7   5 14 13 11 10 9 
   4   2 11 6 
   2   2 12 9 
   7   2 10 9 
  10   1 10 
   6   1 11 
   7   1 9 
   6   1 20
   7   1 20
   9   1 20
  10   1 20
  10   1 20
   4   1 20
   5   1 20
   1   1 20
   5   1 20
   2   1 20
   4   1 20
   0   0 
